(declare-const Bracket_1 Real)
(declare-const Bracket_2 Real)
(declare-const Bracket_3 Real)
(declare-const Bracket_4 Real)
(declare-const Bracket_5 Real)
(declare-const Bracket_6 Real)
(declare-const FinalTaxes Real)
(declare-const Income Real)
(declare-const ite Real)

(assert (= Bracket_1 (* 0.08 (ite (<= Income 60000.0) Income 60000.0))))
(assert (= Bracket_2 (* 0.10 (ite (> Income 60000.0) (- (ite (<= Income 151234.0) Income 151234.0) 60000.0) 0.0))))
(assert (= Bracket_3 (* 0.12 (ite (> Income 151234.0) (- (ite (<= Income 181481.0) Income 181481.0) 151234.0) 0.0))))
(assert (= Bracket_4 (* 0.13 (ite (> Income 181481.0) (- (ite (<= Income 241974.0) Income 241974.0) 181481.0) 0.0))))
(assert (= Bracket_5 (* 0.14 (ite (> Income 241974.0) (- (ite (<= Income 362961.0) Income 362961.0) 241974.0) 0.0))))
(assert (= Bracket_6 (* 0.15 (ite (> Income 362961.0) (- Income 362961.0) 0.0))))
(assert (= FinalTaxes (+ Bracket_1 Bracket_2 Bracket_3 Bracket_4 Bracket_5 Bracket_6)))
